NAME : tsp_46_sol.txt
COMMENT : OR-Tools Guided Local Search
TYPE : TOUR
DIMENSION : 50
COST : 5783
STATUS : ROUTING_SUCCESS
GAP : 0.00% (Reference Solution)
TOUR_SECTION
1
3
2
31
47
33
45
11
4
27
18
12
32
46
7
25
44
43
30
48
37
19
39
16
20
6
5
34
23
42
35
24
49
38
22
50
26
8
10
28
17
29
14
40
21
13
15
9
36
41
-1
